(set-logic ALL)
(set-option :produce-models true)
(declare-fun sym129 () String)
(declare-fun sym526 () String)
(declare-fun sym604 () String)
(declare-fun sym408 () String)
(declare-fun sym560 () String)
(declare-fun sym164 () String)
(declare-fun sym243 () String)
(declare-fun sym684 () String)
(declare-fun sym640 () String)
(declare-fun sym488 () String)
(declare-fun sym444 () String)
(declare-fun sym368 () String)
(declare-fun sym204 () String)
(declare-fun sym139 () String)
(declare-fun sym536 () String)
(declare-fun sym614 () String)
(declare-fun sym218 () String)
(declare-fun sym92 () String)
(declare-fun sym694 () String)
(declare-fun sym650 () String)
(declare-fun sym332 () String)
(declare-fun sym498 () String)
(declare-fun sym454 () String)
(declare-fun sym378 () String)
(declare-fun sym258 () String)
(declare-fun sym292 () String)
(declare-fun sym174 () String)
(declare-fun sym570 () String)
(declare-fun sym307 () String)
(declare-fun sym704 () String)
(declare-fun sym660 () String)
(declare-fun sym342 () String)
(declare-fun sym584 () String)
(declare-fun sym464 () String)
(declare-fun sym388 () String)
(declare-fun sym268 () String)
(declare-fun sym424 () String)
(declare-fun sym184 () String)
(declare-fun sym317 () String)
(declare-fun sym670 () String)
(declare-fun sym352 () String)
(declare-fun sym594 () String)
(declare-fun sym154 () String)
(declare-fun sym550 () String)
(declare-fun sym233 () String)
(declare-fun sym398 () String)
(declare-fun sym630 () String)
(declare-fun sym278 () String)
(declare-fun sym114 () String)
(declare-fun sym478 () String)
(declare-fun sym434 () String)
(declare-fun sym512 () String)
(declare-fun sym194 () String)
(define-fun Alphabet () RegLan 
	(re.* (re.union (str.to_re "A") (str.to_re "B") (str.to_re "C") (str.to_re "D") (str.to_re "E") (str.to_re "F") (str.to_re "G") (str.to_re "H") (str.to_re "I") (str.to_re "J") (str.to_re "K") (str.to_re "L") (str.to_re "M") (str.to_re "N") (str.to_re "O") (str.to_re "P") (str.to_re "Q") (str.to_re "R") (str.to_re "S") (str.to_re "T") (str.to_re "U") (str.to_re "V") (str.to_re "W") (str.to_re "X") (str.to_re "Y") (str.to_re "Z") (str.to_re "a") (str.to_re "b") (str.to_re "c") (str.to_re "d") (str.to_re "e") (str.to_re "f") (str.to_re "g") (str.to_re "h") (str.to_re "i") (str.to_re "j") (str.to_re "k") (str.to_re "l") (str.to_re "m") (str.to_re "n") (str.to_re "o") (str.to_re "p") (str.to_re "q") (str.to_re "r") (str.to_re "s") (str.to_re "t") (str.to_re "u") (str.to_re "v") (str.to_re "w") (str.to_re "x") (str.to_re "y") (str.to_re "z") ))
)

(assert (str.in_re sym194 Alphabet))
(assert (str.in_re sym512 Alphabet))
(assert (str.in_re sym434 Alphabet))
(assert (str.in_re sym478 Alphabet))
(assert (str.in_re sym114 Alphabet))
(assert (str.in_re sym278 Alphabet))
(assert (str.in_re sym630 Alphabet))
(assert (str.in_re sym398 Alphabet))
(assert (str.in_re sym233 Alphabet))
(assert (str.in_re sym550 Alphabet))
(assert (str.in_re sym154 Alphabet))
(assert (str.in_re sym594 Alphabet))
(assert (str.in_re sym352 Alphabet))
(assert (str.in_re sym670 Alphabet))
(assert (str.in_re sym317 Alphabet))
(assert (str.in_re sym184 Alphabet))
(assert (str.in_re sym424 Alphabet))
(assert (str.in_re sym268 Alphabet))
(assert (str.in_re sym388 Alphabet))
(assert (str.in_re sym464 Alphabet))
(assert (str.in_re sym584 Alphabet))
(assert (str.in_re sym342 Alphabet))
(assert (str.in_re sym660 Alphabet))
(assert (str.in_re sym704 Alphabet))
(assert (str.in_re sym307 Alphabet))
(assert (str.in_re sym570 Alphabet))
(assert (str.in_re sym174 Alphabet))
(assert (str.in_re sym292 Alphabet))
(assert (str.in_re sym258 Alphabet))
(assert (str.in_re sym378 Alphabet))
(assert (str.in_re sym454 Alphabet))
(assert (str.in_re sym498 Alphabet))
(assert (str.in_re sym332 Alphabet))
(assert (str.in_re sym650 Alphabet))
(assert (str.in_re sym694 Alphabet))
(assert (str.in_re sym92 Alphabet))
(assert (str.in_re sym218 Alphabet))
(assert (str.in_re sym614 Alphabet))
(assert (str.in_re sym536 Alphabet))
(assert (str.in_re sym139 Alphabet))
(assert (str.in_re sym204 Alphabet))
(assert (str.in_re sym368 Alphabet))
(assert (str.in_re sym444 Alphabet))
(assert (str.in_re sym488 Alphabet))
(assert (str.in_re sym640 Alphabet))
(assert (str.in_re sym684 Alphabet))
(assert (str.in_re sym243 Alphabet))
(assert (str.in_re sym164 Alphabet))
(assert (str.in_re sym560 Alphabet))
(assert (str.in_re sym408 Alphabet))
(assert (str.in_re sym604 Alphabet))
(assert (str.in_re sym526 Alphabet))
(assert (str.in_re sym129 Alphabet))
(assert (not (= (str.to_lower sym424 )(str.to_lower "name" ))))
(assert (= (str.to_lower sym614 )(str.to_lower "length" )))
(assert (not (= (str.to_lower sym630 )(str.to_lower "name" ))))
(assert (= (str.to_lower sym292 )(str.to_lower "name" )))
(assert (not (= (str.to_lower sym560 )(str.to_lower "description" ))))
(assert (= (str.to_lower sym352 )(str.to_lower "type" )))
(assert (= (str.to_lower sym498 )(str.to_lower "field" )))
(assert (not (= (str.to_lower sym454 )(str.to_lower "length" ))))
(assert (= (str.to_lower sym114 )(str.to_lower "name" )))
(assert (not (= (str.to_lower sym488 )(str.to_lower "description" ))))
(assert (not (= (str.to_lower sym164 )(str.to_lower "description" ))))
(assert (not (= (str.to_lower sym174 )(str.to_lower "table" ))))
(assert (not (= (str.to_lower sym594 )(str.to_lower "description" ))))
(assert (not (= (str.to_lower sym233 )(str.to_lower "name" ))))
(assert (not (= (str.to_lower sym526 )(str.to_lower "name" ))))
(assert (not (= (str.to_lower sym268 )(str.to_lower "description" ))))
(assert (not (= (str.to_lower sym194 )(str.to_lower "description" ))))
(assert (not (= (str.to_lower sym378 )(str.to_lower "description" ))))
(assert (not (= (str.to_lower sym332 )(str.to_lower "name" ))))
(assert (not (= (str.to_lower sym694 )(str.to_lower "description" ))))
(assert (= (str.to_lower sym243 )(str.to_lower "description" )))
(assert (not (= (str.to_lower sym388 )(str.to_lower "type" ))))
(assert (= (str.to_lower sym92 )(str.to_lower "database" )))
(assert (= (str.to_lower sym536 )(str.to_lower "description" )))
(assert (not (= (str.to_lower sym398 )(str.to_lower "length" ))))
(assert (not (= (str.to_lower sym660 )(str.to_lower "length" ))))
(assert (not (= (str.to_lower sym342 )(str.to_lower "description" ))))
(assert (= (str.to_lower sym570 )(str.to_lower "type" )))
(assert (= (str.to_lower sym670 )(str.to_lower "option" )))
(assert (not (= (str.to_lower sym307 )(str.to_lower "name" ))))
(assert (not (= (str.to_lower sym478 )(str.to_lower "name" ))))
(assert (= (str.to_lower sym464 )(str.to_lower "option" )))
(assert (not (= (str.to_lower sym684 )(str.to_lower "name" ))))
(assert (not (= (str.to_lower sym154 )(str.to_lower "name" ))))
(assert (not (= (str.to_lower sym184 )(str.to_lower "name" ))))
(assert (not (= (str.to_lower sym584 )(str.to_lower "name" ))))
(assert (= (str.to_lower sym218 )(str.to_lower "name" )))
(assert (= (str.to_lower sym408 )(str.to_lower "option" )))
(assert (= (str.to_lower sym278 )(str.to_lower "field" )))
(assert (not (= (str.to_lower sym434 )(str.to_lower "description" ))))
(assert (= (str.to_lower sym512 )(str.to_lower "name" )))
(assert (= "sql" "sql" ))
(assert (= (str.to_lower sym317 )(str.to_lower "description" )))
(assert (not (= (str.to_lower sym258 )(str.to_lower "name" ))))
(assert (not (= (str.to_lower sym444 )(str.to_lower "type" ))))
(assert (not (= (str.to_lower sym550 )(str.to_lower "name" ))))
(assert (not (= (str.to_lower sym704 )(str.to_lower "field" ))))
(assert (not (= (str.to_lower sym640 )(str.to_lower "description" ))))
(assert (= (str.to_lower sym139 )(str.to_lower "description" )))
(assert (not (= (str.to_lower sym129 )(str.to_lower "name" ))))
(assert (= (str.to_lower sym204 )(str.to_lower "table" )))
(assert (not (= (str.to_lower sym368 )(str.to_lower "name" ))))
(assert (not (= (str.to_lower sym650 )(str.to_lower "type" ))))
(assert (not (= (str.to_lower sym604 )(str.to_lower "type" ))))
(check-sat)
(get-model)
(exit)
